(set-logic HORN)


(declare-fun |NT5| ( Int Int Int Int Int Int Int Int Int Int Int Int Int Int ) Bool)
(declare-fun |NT3| ( Bool Bool Bool Bool Bool Bool Bool Bool Bool Bool Bool Bool Bool Bool ) Bool)
(declare-fun |NT4| ( Int Int Int Int Int Int Int Int Int Int Int Int Int Int ) Bool)
(declare-fun |NT1| ( Int Int Int Int Int Int Int Int Int Int Int Int Int Int ) Bool)
(declare-fun |Start| ( Int Int Int Int Int Int Int Int Int Int Int Int Int Int ) Bool)
(declare-fun |NT2| ( Bool Bool Bool Bool Bool Bool Bool Bool Bool Bool Bool Bool Bool Bool ) Bool)

(assert
  (forall ( (v_0 Int) (v_1 Int) (v_2 Int) (v_3 Int) (v_4 Int) (v_5 Int) (v_6 Int) (v_7 Int) (v_8 Int) (v_9 Int) (v_10 Int) (v_11 Int) (v_12 Int) (v_13 Int) ) 
    (=>
      (and
        (and true
     (= 0 v_0)
     (= 0 v_1)
     (= 1 v_2)
     (= 1 v_3)
     (= 0 v_4)
     (= 0 v_5)
     (= 3 v_6)
     (= 2 v_7)
     (= (- 1) v_8)
     (= 1 v_9)
     (= 3 v_10)
     (= (- 1) v_11)
     (= (- 1) v_12)
     (= 0 v_13))
      )
      (Start v_0 v_1 v_2 v_3 v_4 v_5 v_6 v_7 v_8 v_9 v_10 v_11 v_12 v_13)
    )
  )
)
(assert
  (forall ( (v_0 Int) (v_1 Int) (v_2 Int) (v_3 Int) (v_4 Int) (v_5 Int) (v_6 Int) (v_7 Int) (v_8 Int) (v_9 Int) (v_10 Int) (v_11 Int) (v_12 Int) (v_13 Int) ) 
    (=>
      (and
        (and true
     (= 0 v_0)
     (= 1 v_1)
     (= 0 v_2)
     (= 1 v_3)
     (= (- 1) v_4)
     (= (- 1) v_5)
     (= (- 3) v_6)
     (= 4 v_7)
     (= 0 v_8)
     (= (- 1) v_9)
     (= 2 v_10)
     (= 1 v_11)
     (= (- 2) v_12)
     (= 0 v_13))
      )
      (Start v_0 v_1 v_2 v_3 v_4 v_5 v_6 v_7 v_8 v_9 v_10 v_11 v_12 v_13)
    )
  )
)
(assert
  (forall ( (v_0 Int) (v_1 Int) (v_2 Int) (v_3 Int) (v_4 Int) (v_5 Int) (v_6 Int) (v_7 Int) (v_8 Int) (v_9 Int) (v_10 Int) (v_11 Int) (v_12 Int) (v_13 Int) ) 
    (=>
      (and
        (and true
     (= 0 v_0)
     (= 0 v_1)
     (= 0 v_2)
     (= 1 v_3)
     (= 1 v_4)
     (= 0 v_5)
     (= 2 v_6)
     (= (- 1) v_7)
     (= 1 v_8)
     (= 0 v_9)
     (= 1 v_10)
     (= 0 v_11)
     (= 0 v_12)
     (= (- 1) v_13))
      )
      (Start v_0 v_1 v_2 v_3 v_4 v_5 v_6 v_7 v_8 v_9 v_10 v_11 v_12 v_13)
    )
  )
)
(assert
  (forall ( (v_0 Int) (v_1 Int) (v_2 Int) (v_3 Int) (v_4 Int) (v_5 Int) (v_6 Int) (v_7 Int) (v_8 Int) (v_9 Int) (v_10 Int) (v_11 Int) (v_12 Int) (v_13 Int) ) 
    (=>
      (and
        (and true
     (= 0 v_0)
     (= 0 v_1)
     (= 0 v_2)
     (= 0 v_3)
     (= 0 v_4)
     (= 0 v_5)
     (= 2 v_6)
     (= 2 v_7)
     (= (- 1) v_8)
     (= 1 v_9)
     (= 1 v_10)
     (= (- 1) v_11)
     (= 0 v_12)
     (= 1 v_13))
      )
      (Start v_0 v_1 v_2 v_3 v_4 v_5 v_6 v_7 v_8 v_9 v_10 v_11 v_12 v_13)
    )
  )
)
(assert
  (forall ( (v_0 Int) (v_1 Int) (v_2 Int) (v_3 Int) (v_4 Int) (v_5 Int) (v_6 Int) (v_7 Int) (v_8 Int) (v_9 Int) (v_10 Int) (v_11 Int) (v_12 Int) (v_13 Int) ) 
    (=>
      (and
        (and true
     (= 0 v_0)
     (= 0 v_1)
     (= 0 v_2)
     (= 0 v_3)
     (= 0 v_4)
     (= 0 v_5)
     (= 0 v_6)
     (= 0 v_7)
     (= 0 v_8)
     (= 0 v_9)
     (= 0 v_10)
     (= 0 v_11)
     (= 0 v_12)
     (= 0 v_13))
      )
      (Start v_0 v_1 v_2 v_3 v_4 v_5 v_6 v_7 v_8 v_9 v_10 v_11 v_12 v_13)
    )
  )
)
(assert
  (forall ( (v_0 Int) (v_1 Int) (v_2 Int) (v_3 Int) (v_4 Int) (v_5 Int) (v_6 Int) (v_7 Int) (v_8 Int) (v_9 Int) (v_10 Int) (v_11 Int) (v_12 Int) (v_13 Int) ) 
    (=>
      (and
        (and true
     (= 1 v_0)
     (= 1 v_1)
     (= 1 v_2)
     (= 1 v_3)
     (= 1 v_4)
     (= 1 v_5)
     (= 1 v_6)
     (= 1 v_7)
     (= 1 v_8)
     (= 1 v_9)
     (= 1 v_10)
     (= 1 v_11)
     (= 1 v_12)
     (= 1 v_13))
      )
      (Start v_0 v_1 v_2 v_3 v_4 v_5 v_6 v_7 v_8 v_9 v_10 v_11 v_12 v_13)
    )
  )
)
(assert
  (forall ( (A Int) (B Int) (C Int) (D Int) (E Int) (F Int) (G Int) (H Int) (I Int) (J Int) (K Int) (L Int) (M Int) (N Int) (O Int) (P Int) (Q Int) (R Int) (S Int) (T Int) (U Int) (V Int) (W Int) (X Int) (Y Int) (Z Int) (A1 Int) (B1 Int) (C1 Int) (D1 Int) (E1 Int) (F1 Int) (G1 Int) (H1 Int) (I1 Int) (J1 Int) (K1 Int) (L1 Int) (M1 Int) (N1 Int) (O1 Int) (P1 Int) ) 
    (=>
      (and
        (NT1 C1 D1 E1 F1 G1 H1 I1 J1 K1 L1 M1 N1 O1 P1)
        (NT1 O P Q R S T U V W X Y Z A1 B1)
        (and (= B (+ A1 O1))
     (= C (+ Z N1))
     (= D (+ Y M1))
     (= E (+ X L1))
     (= F (+ W K1))
     (= G (+ V J1))
     (= H (+ U I1))
     (= I (+ T H1))
     (= N (+ O C1))
     (= M (+ P D1))
     (= L (+ Q E1))
     (= K (+ R F1))
     (= J (+ S G1))
     (= A (+ B1 P1)))
      )
      (Start N M L K J I H G F E D C B A)
    )
  )
)
(assert
  (forall ( (A Int) (B Int) (C Int) (D Int) (E Int) (F Int) (G Int) (H Int) (I Int) (J Int) (K Int) (L Int) (M Int) (N Int) (O Bool) (P Bool) (Q Bool) (R Bool) (S Bool) (T Bool) (U Bool) (V Bool) (W Bool) (X Bool) (Y Bool) (Z Bool) (A1 Bool) (B1 Bool) (C1 Int) (D1 Int) (E1 Int) (F1 Int) (G1 Int) (H1 Int) (I1 Int) (J1 Int) (K1 Int) (L1 Int) (M1 Int) (N1 Int) (O1 Int) (P1 Int) (Q1 Int) (R1 Int) (S1 Int) (T1 Int) (U1 Int) (V1 Int) (W1 Int) (X1 Int) (Y1 Int) (Z1 Int) (A2 Int) (B2 Int) (C2 Int) (D2 Int) ) 
    (=>
      (and
        (NT1 Q1 R1 S1 T1 U1 V1 W1 X1 Y1 Z1 A2 B2 C2 D2)
        (NT2 O P Q R S T U V W X Y Z A1 B1)
        (NT1 C1 D1 E1 F1 G1 H1 I1 J1 K1 L1 M1 N1 O1 P1)
        (and (= B (ite A1 O1 C2))
     (= C (ite Z N1 B2))
     (= D (ite Y M1 A2))
     (= E (ite X L1 Z1))
     (= F (ite W K1 Y1))
     (= G (ite V J1 X1))
     (= H (ite U I1 W1))
     (= I (ite T H1 V1))
     (= J (ite S G1 U1))
     (= K (ite R F1 T1))
     (= L (ite Q E1 S1))
     (= M (ite P D1 R1))
     (= N (ite O C1 Q1))
     (= A (ite B1 P1 D2)))
      )
      (Start N M L K J I H G F E D C B A)
    )
  )
)
(assert
  (forall ( (A Int) (B Int) (C Int) (D Int) (E Int) (F Int) (G Int) (H Int) (I Int) (J Int) (K Int) (L Int) (M Int) (N Int) (O Int) (P Int) (Q Int) (R Int) (S Int) (T Int) (U Int) (V Int) (W Int) (X Int) (Y Int) (Z Int) (A1 Int) (B1 Int) (C1 Int) (D1 Int) (E1 Int) (F1 Int) (G1 Int) (H1 Int) (I1 Int) (J1 Int) (K1 Int) (L1 Int) (M1 Int) (N1 Int) (O1 Int) (P1 Int) ) 
    (=>
      (and
        (NT1 C1 D1 E1 F1 G1 H1 I1 J1 K1 L1 M1 N1 O1 P1)
        (NT4 O P Q R S T U V W X Y Z A1 B1)
        (and (= B (+ A1 O1))
     (= C (+ Z N1))
     (= D (+ Y M1))
     (= E (+ X L1))
     (= F (+ W K1))
     (= G (+ V J1))
     (= H (+ U I1))
     (= I (+ T H1))
     (= N (+ O C1))
     (= M (+ P D1))
     (= L (+ Q E1))
     (= K (+ R F1))
     (= J (+ S G1))
     (= A (+ B1 P1)))
      )
      (Start N M L K J I H G F E D C B A)
    )
  )
)
(assert
  (forall ( (A Int) (B Int) (C Int) (D Int) (E Int) (F Int) (G Int) (H Int) (I Int) (J Int) (K Int) (L Int) (M Int) (N Int) (O Bool) (P Bool) (Q Bool) (R Bool) (S Bool) (T Bool) (U Bool) (V Bool) (W Bool) (X Bool) (Y Bool) (Z Bool) (A1 Bool) (B1 Bool) (C1 Int) (D1 Int) (E1 Int) (F1 Int) (G1 Int) (H1 Int) (I1 Int) (J1 Int) (K1 Int) (L1 Int) (M1 Int) (N1 Int) (O1 Int) (P1 Int) (Q1 Int) (R1 Int) (S1 Int) (T1 Int) (U1 Int) (V1 Int) (W1 Int) (X1 Int) (Y1 Int) (Z1 Int) (A2 Int) (B2 Int) (C2 Int) (D2 Int) ) 
    (=>
      (and
        (NT1 Q1 R1 S1 T1 U1 V1 W1 X1 Y1 Z1 A2 B2 C2 D2)
        (NT3 O P Q R S T U V W X Y Z A1 B1)
        (NT5 C1 D1 E1 F1 G1 H1 I1 J1 K1 L1 M1 N1 O1 P1)
        (and (= B (ite A1 O1 C2))
     (= C (ite Z N1 B2))
     (= D (ite Y M1 A2))
     (= E (ite X L1 Z1))
     (= F (ite W K1 Y1))
     (= G (ite V J1 X1))
     (= H (ite U I1 W1))
     (= I (ite T H1 V1))
     (= J (ite S G1 U1))
     (= K (ite R F1 T1))
     (= L (ite Q E1 S1))
     (= M (ite P D1 R1))
     (= N (ite O C1 Q1))
     (= A (ite B1 P1 D2)))
      )
      (Start N M L K J I H G F E D C B A)
    )
  )
)
(assert
  (forall ( (A Int) (B Int) (C Int) (D Int) (E Int) (F Int) (G Int) (H Int) (I Int) (J Int) (K Int) (L Int) (M Int) (N Int) (O Int) (P Int) (Q Int) (R Int) (S Int) (T Int) (U Int) (V Int) (W Int) (X Int) (Y Int) (Z Int) (A1 Int) (B1 Int) (C1 Int) (D1 Int) (E1 Int) (F1 Int) (G1 Int) (H1 Int) (I1 Int) (J1 Int) (K1 Int) (L1 Int) (M1 Int) (N1 Int) (O1 Int) (P1 Int) ) 
    (=>
      (and
        (NT5 C1 D1 E1 F1 G1 H1 I1 J1 K1 L1 M1 N1 O1 P1)
        (NT5 O P Q R S T U V W X Y Z A1 B1)
        (and (= B (+ A1 O1))
     (= C (+ Z N1))
     (= D (+ Y M1))
     (= E (+ X L1))
     (= F (+ W K1))
     (= G (+ V J1))
     (= H (+ U I1))
     (= I (+ T H1))
     (= N (+ O C1))
     (= M (+ P D1))
     (= L (+ Q E1))
     (= K (+ R F1))
     (= J (+ S G1))
     (= A (+ B1 P1)))
      )
      (Start N M L K J I H G F E D C B A)
    )
  )
)
(assert
  (forall ( (A Int) (B Int) (C Int) (D Int) (E Int) (F Int) (G Int) (H Int) (I Int) (J Int) (K Int) (L Int) (M Int) (N Int) (O Bool) (P Bool) (Q Bool) (R Bool) (S Bool) (T Bool) (U Bool) (V Bool) (W Bool) (X Bool) (Y Bool) (Z Bool) (A1 Bool) (B1 Bool) (C1 Int) (D1 Int) (E1 Int) (F1 Int) (G1 Int) (H1 Int) (I1 Int) (J1 Int) (K1 Int) (L1 Int) (M1 Int) (N1 Int) (O1 Int) (P1 Int) (Q1 Int) (R1 Int) (S1 Int) (T1 Int) (U1 Int) (V1 Int) (W1 Int) (X1 Int) (Y1 Int) (Z1 Int) (A2 Int) (B2 Int) (C2 Int) (D2 Int) ) 
    (=>
      (and
        (NT1 Q1 R1 S1 T1 U1 V1 W1 X1 Y1 Z1 A2 B2 C2 D2)
        (NT3 O P Q R S T U V W X Y Z A1 B1)
        (NT1 C1 D1 E1 F1 G1 H1 I1 J1 K1 L1 M1 N1 O1 P1)
        (and (= B (ite A1 O1 C2))
     (= C (ite Z N1 B2))
     (= D (ite Y M1 A2))
     (= E (ite X L1 Z1))
     (= F (ite W K1 Y1))
     (= G (ite V J1 X1))
     (= H (ite U I1 W1))
     (= I (ite T H1 V1))
     (= J (ite S G1 U1))
     (= K (ite R F1 T1))
     (= L (ite Q E1 S1))
     (= M (ite P D1 R1))
     (= N (ite O C1 Q1))
     (= A (ite B1 P1 D2)))
      )
      (Start N M L K J I H G F E D C B A)
    )
  )
)
(assert
  (forall ( (A Int) (B Int) (C Int) (D Int) (E Int) (F Int) (G Int) (H Int) (I Int) (J Int) (K Int) (L Int) (M Int) (N Int) (O Int) (P Int) (Q Int) (R Int) (S Int) (T Int) (U Int) (V Int) (W Int) (X Int) (Y Int) (Z Int) (A1 Int) (B1 Int) (C1 Int) (D1 Int) (E1 Int) (F1 Int) (G1 Int) (H1 Int) (I1 Int) (J1 Int) (K1 Int) (L1 Int) (M1 Int) (N1 Int) (O1 Int) (P1 Int) ) 
    (=>
      (and
        (NT1 C1 D1 E1 F1 G1 H1 I1 J1 K1 L1 M1 N1 O1 P1)
        (NT5 O P Q R S T U V W X Y Z A1 B1)
        (and (= B (+ A1 O1))
     (= C (+ Z N1))
     (= D (+ Y M1))
     (= E (+ X L1))
     (= F (+ W K1))
     (= G (+ V J1))
     (= H (+ U I1))
     (= I (+ T H1))
     (= N (+ O C1))
     (= M (+ P D1))
     (= L (+ Q E1))
     (= K (+ R F1))
     (= J (+ S G1))
     (= A (+ B1 P1)))
      )
      (Start N M L K J I H G F E D C B A)
    )
  )
)
(assert
  (forall ( (v_0 Int) (v_1 Int) (v_2 Int) (v_3 Int) (v_4 Int) (v_5 Int) (v_6 Int) (v_7 Int) (v_8 Int) (v_9 Int) (v_10 Int) (v_11 Int) (v_12 Int) (v_13 Int) ) 
    (=>
      (and
        (and true
     (= 0 v_0)
     (= 0 v_1)
     (= 0 v_2)
     (= 0 v_3)
     (= 0 v_4)
     (= 0 v_5)
     (= 0 v_6)
     (= 0 v_7)
     (= 0 v_8)
     (= 0 v_9)
     (= 0 v_10)
     (= 0 v_11)
     (= 0 v_12)
     (= 0 v_13))
      )
      (NT1 v_0 v_1 v_2 v_3 v_4 v_5 v_6 v_7 v_8 v_9 v_10 v_11 v_12 v_13)
    )
  )
)
(assert
  (forall ( (v_0 Int) (v_1 Int) (v_2 Int) (v_3 Int) (v_4 Int) (v_5 Int) (v_6 Int) (v_7 Int) (v_8 Int) (v_9 Int) (v_10 Int) (v_11 Int) (v_12 Int) (v_13 Int) ) 
    (=>
      (and
        (and true
     (= 1 v_0)
     (= 1 v_1)
     (= 1 v_2)
     (= 1 v_3)
     (= 1 v_4)
     (= 1 v_5)
     (= 1 v_6)
     (= 1 v_7)
     (= 1 v_8)
     (= 1 v_9)
     (= 1 v_10)
     (= 1 v_11)
     (= 1 v_12)
     (= 1 v_13))
      )
      (NT1 v_0 v_1 v_2 v_3 v_4 v_5 v_6 v_7 v_8 v_9 v_10 v_11 v_12 v_13)
    )
  )
)
(assert
  (forall ( (A Int) (B Int) (C Int) (D Int) (E Int) (F Int) (G Int) (H Int) (I Int) (J Int) (K Int) (L Int) (M Int) (N Int) (O Int) (P Int) (Q Int) (R Int) (S Int) (T Int) (U Int) (V Int) (W Int) (X Int) (Y Int) (Z Int) (A1 Int) (B1 Int) (C1 Int) (D1 Int) (E1 Int) (F1 Int) (G1 Int) (H1 Int) (I1 Int) (J1 Int) (K1 Int) (L1 Int) (M1 Int) (N1 Int) (O1 Int) (P1 Int) ) 
    (=>
      (and
        (NT1 C1 D1 E1 F1 G1 H1 I1 J1 K1 L1 M1 N1 O1 P1)
        (NT1 O P Q R S T U V W X Y Z A1 B1)
        (and (= B (+ A1 O1))
     (= C (+ Z N1))
     (= D (+ Y M1))
     (= E (+ X L1))
     (= F (+ W K1))
     (= G (+ V J1))
     (= H (+ U I1))
     (= I (+ T H1))
     (= N (+ O C1))
     (= M (+ P D1))
     (= L (+ Q E1))
     (= K (+ R F1))
     (= J (+ S G1))
     (= A (+ B1 P1)))
      )
      (NT1 N M L K J I H G F E D C B A)
    )
  )
)
(assert
  (forall ( (A Bool) (B Bool) (C Bool) (D Bool) (E Bool) (F Bool) (G Bool) (H Bool) (I Bool) (J Bool) (K Bool) (L Bool) (M Bool) (N Bool) (O Int) (P Int) (Q Int) (R Int) (S Int) (T Int) (U Int) (V Int) (W Int) (X Int) (Y Int) (Z Int) (A1 Int) (B1 Int) (C1 Int) (D1 Int) (E1 Int) (F1 Int) (G1 Int) (H1 Int) (I1 Int) (J1 Int) (K1 Int) (L1 Int) (M1 Int) (N1 Int) (O1 Int) (P1 Int) ) 
    (=>
      (and
        (NT1 C1 D1 E1 F1 G1 H1 I1 J1 K1 L1 M1 N1 O1 P1)
        (NT1 O P Q R S T U V W X Y Z A1 B1)
        (and (= M (<= P D1))
     (= L (<= Q E1))
     (= K (<= R F1))
     (= J (<= S G1))
     (= I (<= T H1))
     (= H (<= U I1))
     (= G (<= V J1))
     (= F (<= W K1))
     (= E (<= X L1))
     (= D (<= Y M1))
     (= C (<= Z N1))
     (= B (<= A1 O1))
     (= A (<= B1 P1))
     (= N (<= O C1)))
      )
      (NT2 N M L K J I H G F E D C B A)
    )
  )
)
(assert
  (forall ( (A Bool) (B Bool) (C Bool) (D Bool) (E Bool) (F Bool) (G Bool) (H Bool) (I Bool) (J Bool) (K Bool) (L Bool) (M Bool) (N Bool) (O Bool) (P Bool) (Q Bool) (R Bool) (S Bool) (T Bool) (U Bool) (V Bool) (W Bool) (X Bool) (Y Bool) (Z Bool) (A1 Bool) (B1 Bool) ) 
    (=>
      (and
        (NT2 O P Q R S T U V W X Y Z A1 B1)
        (and (not (= A1 B))
     (not (= Z C))
     (not (= Y D))
     (not (= X E))
     (not (= W F))
     (not (= V G))
     (not (= U H))
     (not (= T I))
     (not (= S J))
     (not (= R K))
     (not (= Q L))
     (not (= P M))
     (not (= O N))
     (not (= B1 A)))
      )
      (NT2 N M L K J I H G F E D C B A)
    )
  )
)
(assert
  (forall ( (A Bool) (B Bool) (C Bool) (D Bool) (E Bool) (F Bool) (G Bool) (H Bool) (I Bool) (J Bool) (K Bool) (L Bool) (M Bool) (N Bool) (O Int) (P Int) (Q Int) (R Int) (S Int) (T Int) (U Int) (V Int) (W Int) (X Int) (Y Int) (Z Int) (A1 Int) (B1 Int) (C1 Int) (D1 Int) (E1 Int) (F1 Int) (G1 Int) (H1 Int) (I1 Int) (J1 Int) (K1 Int) (L1 Int) (M1 Int) (N1 Int) (O1 Int) (P1 Int) ) 
    (=>
      (and
        (NT1 C1 D1 E1 F1 G1 H1 I1 J1 K1 L1 M1 N1 O1 P1)
        (NT5 O P Q R S T U V W X Y Z A1 B1)
        (and (= M (= P D1))
     (= L (= Q E1))
     (= K (= R F1))
     (= J (= S G1))
     (= I (= T H1))
     (= H (= U I1))
     (= G (= V J1))
     (= F (= W K1))
     (= E (= X L1))
     (= D (= Y M1))
     (= C (= Z N1))
     (= B (= A1 O1))
     (= A (= B1 P1))
     (= N (= O C1)))
      )
      (NT2 N M L K J I H G F E D C B A)
    )
  )
)
(assert
  (forall ( (A Bool) (B Bool) (C Bool) (D Bool) (E Bool) (F Bool) (G Bool) (H Bool) (I Bool) (J Bool) (K Bool) (L Bool) (M Bool) (N Bool) (O Int) (P Int) (Q Int) (R Int) (S Int) (T Int) (U Int) (V Int) (W Int) (X Int) (Y Int) (Z Int) (A1 Int) (B1 Int) (C1 Int) (D1 Int) (E1 Int) (F1 Int) (G1 Int) (H1 Int) (I1 Int) (J1 Int) (K1 Int) (L1 Int) (M1 Int) (N1 Int) (O1 Int) (P1 Int) ) 
    (=>
      (and
        (NT1 C1 D1 E1 F1 G1 H1 I1 J1 K1 L1 M1 N1 O1 P1)
        (NT5 O P Q R S T U V W X Y Z A1 B1)
        (and (= M (>= P D1))
     (= L (>= Q E1))
     (= K (>= R F1))
     (= J (>= S G1))
     (= I (>= T H1))
     (= H (>= U I1))
     (= G (>= V J1))
     (= F (>= W K1))
     (= E (>= X L1))
     (= D (>= Y M1))
     (= C (>= Z N1))
     (= B (>= A1 O1))
     (= A (>= B1 P1))
     (= N (>= O C1)))
      )
      (NT2 N M L K J I H G F E D C B A)
    )
  )
)
(assert
  (forall ( (A Bool) (B Bool) (C Bool) (D Bool) (E Bool) (F Bool) (G Bool) (H Bool) (I Bool) (J Bool) (K Bool) (L Bool) (M Bool) (N Bool) (O Int) (P Int) (Q Int) (R Int) (S Int) (T Int) (U Int) (V Int) (W Int) (X Int) (Y Int) (Z Int) (A1 Int) (B1 Int) (C1 Int) (D1 Int) (E1 Int) (F1 Int) (G1 Int) (H1 Int) (I1 Int) (J1 Int) (K1 Int) (L1 Int) (M1 Int) (N1 Int) (O1 Int) (P1 Int) ) 
    (=>
      (and
        (NT1 C1 D1 E1 F1 G1 H1 I1 J1 K1 L1 M1 N1 O1 P1)
        (NT1 O P Q R S T U V W X Y Z A1 B1)
        (and (= M (= P D1))
     (= L (= Q E1))
     (= K (= R F1))
     (= J (= S G1))
     (= I (= T H1))
     (= H (= U I1))
     (= G (= V J1))
     (= F (= W K1))
     (= E (= X L1))
     (= D (= Y M1))
     (= C (= Z N1))
     (= B (= A1 O1))
     (= A (= B1 P1))
     (= N (= O C1)))
      )
      (NT3 N M L K J I H G F E D C B A)
    )
  )
)
(assert
  (forall ( (A Bool) (B Bool) (C Bool) (D Bool) (E Bool) (F Bool) (G Bool) (H Bool) (I Bool) (J Bool) (K Bool) (L Bool) (M Bool) (N Bool) (O Int) (P Int) (Q Int) (R Int) (S Int) (T Int) (U Int) (V Int) (W Int) (X Int) (Y Int) (Z Int) (A1 Int) (B1 Int) (C1 Int) (D1 Int) (E1 Int) (F1 Int) (G1 Int) (H1 Int) (I1 Int) (J1 Int) (K1 Int) (L1 Int) (M1 Int) (N1 Int) (O1 Int) (P1 Int) ) 
    (=>
      (and
        (NT1 C1 D1 E1 F1 G1 H1 I1 J1 K1 L1 M1 N1 O1 P1)
        (NT1 O P Q R S T U V W X Y Z A1 B1)
        (and (= M (>= P D1))
     (= L (>= Q E1))
     (= K (>= R F1))
     (= J (>= S G1))
     (= I (>= T H1))
     (= H (>= U I1))
     (= G (>= V J1))
     (= F (>= W K1))
     (= E (>= X L1))
     (= D (>= Y M1))
     (= C (>= Z N1))
     (= B (>= A1 O1))
     (= A (>= B1 P1))
     (= N (>= O C1)))
      )
      (NT3 N M L K J I H G F E D C B A)
    )
  )
)
(assert
  (forall ( (A Bool) (B Bool) (C Bool) (D Bool) (E Bool) (F Bool) (G Bool) (H Bool) (I Bool) (J Bool) (K Bool) (L Bool) (M Bool) (N Bool) (O Bool) (P Bool) (Q Bool) (R Bool) (S Bool) (T Bool) (U Bool) (V Bool) (W Bool) (X Bool) (Y Bool) (Z Bool) (A1 Bool) (B1 Bool) ) 
    (=>
      (and
        (NT3 O P Q R S T U V W X Y Z A1 B1)
        (and (not (= A1 B))
     (not (= Z C))
     (not (= Y D))
     (not (= X E))
     (not (= W F))
     (not (= V G))
     (not (= U H))
     (not (= T I))
     (not (= S J))
     (not (= R K))
     (not (= Q L))
     (not (= P M))
     (not (= O N))
     (not (= B1 A)))
      )
      (NT3 N M L K J I H G F E D C B A)
    )
  )
)
(assert
  (forall ( (A Bool) (B Bool) (C Bool) (D Bool) (E Bool) (F Bool) (G Bool) (H Bool) (I Bool) (J Bool) (K Bool) (L Bool) (M Bool) (N Bool) (O Bool) (P Bool) (Q Bool) (R Bool) (S Bool) (T Bool) (U Bool) (V Bool) (W Bool) (X Bool) (Y Bool) (Z Bool) (A1 Bool) (B1 Bool) (C1 Bool) (D1 Bool) (E1 Bool) (F1 Bool) (G1 Bool) (H1 Bool) (I1 Bool) (J1 Bool) (K1 Bool) (L1 Bool) (M1 Bool) (N1 Bool) (O1 Bool) (P1 Bool) ) 
    (=>
      (and
        (NT3 C1 D1 E1 F1 G1 H1 I1 J1 K1 L1 M1 N1 O1 P1)
        (NT3 O P Q R S T U V W X Y Z A1 B1)
        (and (= M (and D1 P))
     (= L (and E1 Q))
     (= K (and F1 R))
     (= J (and G1 S))
     (= I (and H1 T))
     (= H (and I1 U))
     (= G (and J1 V))
     (= F (and K1 W))
     (= E (and L1 X))
     (= D (and M1 Y))
     (= C (and N1 Z))
     (= B (and O1 A1))
     (= A (and P1 B1))
     (= N (and C1 O)))
      )
      (NT3 N M L K J I H G F E D C B A)
    )
  )
)
(assert
  (forall ( (A Bool) (B Bool) (C Bool) (D Bool) (E Bool) (F Bool) (G Bool) (H Bool) (I Bool) (J Bool) (K Bool) (L Bool) (M Bool) (N Bool) (O Bool) (P Bool) (Q Bool) (R Bool) (S Bool) (T Bool) (U Bool) (V Bool) (W Bool) (X Bool) (Y Bool) (Z Bool) (A1 Bool) (B1 Bool) (C1 Bool) (D1 Bool) (E1 Bool) (F1 Bool) (G1 Bool) (H1 Bool) (I1 Bool) (J1 Bool) (K1 Bool) (L1 Bool) (M1 Bool) (N1 Bool) (O1 Bool) (P1 Bool) ) 
    (=>
      (and
        (NT3 C1 D1 E1 F1 G1 H1 I1 J1 K1 L1 M1 N1 O1 P1)
        (NT3 O P Q R S T U V W X Y Z A1 B1)
        (and (= M (or D1 P))
     (= L (or E1 Q))
     (= K (or F1 R))
     (= J (or G1 S))
     (= I (or H1 T))
     (= H (or I1 U))
     (= G (or J1 V))
     (= F (or K1 W))
     (= E (or L1 X))
     (= D (or M1 Y))
     (= C (or N1 Z))
     (= B (or O1 A1))
     (= A (or P1 B1))
     (= N (or C1 O)))
      )
      (NT3 N M L K J I H G F E D C B A)
    )
  )
)
(assert
  (forall ( (A Int) (B Int) (C Int) (D Int) (E Int) (F Int) (G Int) (H Int) (I Int) (J Int) (K Int) (L Int) (M Int) (N Int) (O Bool) (P Bool) (Q Bool) (R Bool) (S Bool) (T Bool) (U Bool) (V Bool) (W Bool) (X Bool) (Y Bool) (Z Bool) (A1 Bool) (B1 Bool) (C1 Int) (D1 Int) (E1 Int) (F1 Int) (G1 Int) (H1 Int) (I1 Int) (J1 Int) (K1 Int) (L1 Int) (M1 Int) (N1 Int) (O1 Int) (P1 Int) (Q1 Int) (R1 Int) (S1 Int) (T1 Int) (U1 Int) (V1 Int) (W1 Int) (X1 Int) (Y1 Int) (Z1 Int) (A2 Int) (B2 Int) (C2 Int) (D2 Int) ) 
    (=>
      (and
        (NT1 Q1 R1 S1 T1 U1 V1 W1 X1 Y1 Z1 A2 B2 C2 D2)
        (NT2 O P Q R S T U V W X Y Z A1 B1)
        (NT1 C1 D1 E1 F1 G1 H1 I1 J1 K1 L1 M1 N1 O1 P1)
        (and (= B (ite A1 O1 C2))
     (= C (ite Z N1 B2))
     (= D (ite Y M1 A2))
     (= E (ite X L1 Z1))
     (= F (ite W K1 Y1))
     (= G (ite V J1 X1))
     (= H (ite U I1 W1))
     (= I (ite T H1 V1))
     (= J (ite S G1 U1))
     (= K (ite R F1 T1))
     (= L (ite Q E1 S1))
     (= M (ite P D1 R1))
     (= N (ite O C1 Q1))
     (= A (ite B1 P1 D2)))
      )
      (NT4 N M L K J I H G F E D C B A)
    )
  )
)
(assert
  (forall ( (A Int) (B Int) (C Int) (D Int) (E Int) (F Int) (G Int) (H Int) (I Int) (J Int) (K Int) (L Int) (M Int) (N Int) (O Int) (P Int) (Q Int) (R Int) (S Int) (T Int) (U Int) (V Int) (W Int) (X Int) (Y Int) (Z Int) (A1 Int) (B1 Int) (C1 Int) (D1 Int) (E1 Int) (F1 Int) (G1 Int) (H1 Int) (I1 Int) (J1 Int) (K1 Int) (L1 Int) (M1 Int) (N1 Int) (O1 Int) (P1 Int) ) 
    (=>
      (and
        (NT1 C1 D1 E1 F1 G1 H1 I1 J1 K1 L1 M1 N1 O1 P1)
        (NT4 O P Q R S T U V W X Y Z A1 B1)
        (and (= B (+ A1 O1))
     (= C (+ Z N1))
     (= D (+ Y M1))
     (= E (+ X L1))
     (= F (+ W K1))
     (= G (+ V J1))
     (= H (+ U I1))
     (= I (+ T H1))
     (= N (+ O C1))
     (= M (+ P D1))
     (= L (+ Q E1))
     (= K (+ R F1))
     (= J (+ S G1))
     (= A (+ B1 P1)))
      )
      (NT4 N M L K J I H G F E D C B A)
    )
  )
)
(assert
  (forall ( (A Int) (B Int) (C Int) (D Int) (E Int) (F Int) (G Int) (H Int) (I Int) (J Int) (K Int) (L Int) (M Int) (N Int) (O Bool) (P Bool) (Q Bool) (R Bool) (S Bool) (T Bool) (U Bool) (V Bool) (W Bool) (X Bool) (Y Bool) (Z Bool) (A1 Bool) (B1 Bool) (C1 Int) (D1 Int) (E1 Int) (F1 Int) (G1 Int) (H1 Int) (I1 Int) (J1 Int) (K1 Int) (L1 Int) (M1 Int) (N1 Int) (O1 Int) (P1 Int) (Q1 Int) (R1 Int) (S1 Int) (T1 Int) (U1 Int) (V1 Int) (W1 Int) (X1 Int) (Y1 Int) (Z1 Int) (A2 Int) (B2 Int) (C2 Int) (D2 Int) ) 
    (=>
      (and
        (NT1 Q1 R1 S1 T1 U1 V1 W1 X1 Y1 Z1 A2 B2 C2 D2)
        (NT3 O P Q R S T U V W X Y Z A1 B1)
        (NT5 C1 D1 E1 F1 G1 H1 I1 J1 K1 L1 M1 N1 O1 P1)
        (and (= B (ite A1 O1 C2))
     (= C (ite Z N1 B2))
     (= D (ite Y M1 A2))
     (= E (ite X L1 Z1))
     (= F (ite W K1 Y1))
     (= G (ite V J1 X1))
     (= H (ite U I1 W1))
     (= I (ite T H1 V1))
     (= J (ite S G1 U1))
     (= K (ite R F1 T1))
     (= L (ite Q E1 S1))
     (= M (ite P D1 R1))
     (= N (ite O C1 Q1))
     (= A (ite B1 P1 D2)))
      )
      (NT4 N M L K J I H G F E D C B A)
    )
  )
)
(assert
  (forall ( (A Int) (B Int) (C Int) (D Int) (E Int) (F Int) (G Int) (H Int) (I Int) (J Int) (K Int) (L Int) (M Int) (N Int) (O Int) (P Int) (Q Int) (R Int) (S Int) (T Int) (U Int) (V Int) (W Int) (X Int) (Y Int) (Z Int) (A1 Int) (B1 Int) (C1 Int) (D1 Int) (E1 Int) (F1 Int) (G1 Int) (H1 Int) (I1 Int) (J1 Int) (K1 Int) (L1 Int) (M1 Int) (N1 Int) (O1 Int) (P1 Int) ) 
    (=>
      (and
        (NT5 C1 D1 E1 F1 G1 H1 I1 J1 K1 L1 M1 N1 O1 P1)
        (NT5 O P Q R S T U V W X Y Z A1 B1)
        (and (= B (+ A1 O1))
     (= C (+ Z N1))
     (= D (+ Y M1))
     (= E (+ X L1))
     (= F (+ W K1))
     (= G (+ V J1))
     (= H (+ U I1))
     (= I (+ T H1))
     (= N (+ O C1))
     (= M (+ P D1))
     (= L (+ Q E1))
     (= K (+ R F1))
     (= J (+ S G1))
     (= A (+ B1 P1)))
      )
      (NT4 N M L K J I H G F E D C B A)
    )
  )
)
(assert
  (forall ( (A Int) (B Int) (C Int) (D Int) (E Int) (F Int) (G Int) (H Int) (I Int) (J Int) (K Int) (L Int) (M Int) (N Int) (O Bool) (P Bool) (Q Bool) (R Bool) (S Bool) (T Bool) (U Bool) (V Bool) (W Bool) (X Bool) (Y Bool) (Z Bool) (A1 Bool) (B1 Bool) (C1 Int) (D1 Int) (E1 Int) (F1 Int) (G1 Int) (H1 Int) (I1 Int) (J1 Int) (K1 Int) (L1 Int) (M1 Int) (N1 Int) (O1 Int) (P1 Int) (Q1 Int) (R1 Int) (S1 Int) (T1 Int) (U1 Int) (V1 Int) (W1 Int) (X1 Int) (Y1 Int) (Z1 Int) (A2 Int) (B2 Int) (C2 Int) (D2 Int) ) 
    (=>
      (and
        (NT1 Q1 R1 S1 T1 U1 V1 W1 X1 Y1 Z1 A2 B2 C2 D2)
        (NT3 O P Q R S T U V W X Y Z A1 B1)
        (NT1 C1 D1 E1 F1 G1 H1 I1 J1 K1 L1 M1 N1 O1 P1)
        (and (= B (ite A1 O1 C2))
     (= C (ite Z N1 B2))
     (= D (ite Y M1 A2))
     (= E (ite X L1 Z1))
     (= F (ite W K1 Y1))
     (= G (ite V J1 X1))
     (= H (ite U I1 W1))
     (= I (ite T H1 V1))
     (= J (ite S G1 U1))
     (= K (ite R F1 T1))
     (= L (ite Q E1 S1))
     (= M (ite P D1 R1))
     (= N (ite O C1 Q1))
     (= A (ite B1 P1 D2)))
      )
      (NT5 N M L K J I H G F E D C B A)
    )
  )
)
(assert
  (forall ( (A Int) (B Int) (C Int) (D Int) (E Int) (F Int) (G Int) (H Int) (I Int) (J Int) (K Int) (L Int) (M Int) (N Int) (O Int) (P Int) (Q Int) (R Int) (S Int) (T Int) (U Int) (V Int) (W Int) (X Int) (Y Int) (Z Int) (A1 Int) (B1 Int) (C1 Int) (D1 Int) (E1 Int) (F1 Int) (G1 Int) (H1 Int) (I1 Int) (J1 Int) (K1 Int) (L1 Int) (M1 Int) (N1 Int) (O1 Int) (P1 Int) ) 
    (=>
      (and
        (NT1 C1 D1 E1 F1 G1 H1 I1 J1 K1 L1 M1 N1 O1 P1)
        (NT5 O P Q R S T U V W X Y Z A1 B1)
        (and (= B (+ A1 O1))
     (= C (+ Z N1))
     (= D (+ Y M1))
     (= E (+ X L1))
     (= F (+ W K1))
     (= G (+ V J1))
     (= H (+ U I1))
     (= I (+ T H1))
     (= N (+ O C1))
     (= M (+ P D1))
     (= L (+ Q E1))
     (= K (+ R F1))
     (= J (+ S G1))
     (= A (+ B1 P1)))
      )
      (NT5 N M L K J I H G F E D C B A)
    )
  )
)
(assert
  (forall ( (A Int) (B Int) (C Int) (D Int) (E Int) (F Int) (G Int) (H Int) (I Int) (J Int) (K Int) (L Int) (M Int) (N Int) ) 
    (=>
      (and
        (Start A B C D E F G H I J K L M N)
        (and (= M 0)
     (= L 1)
     (= K 3)
     (= J 1)
     (= I 0)
     (= H 4)
     (= G 3)
     (= F 0)
     (= E 0)
     (= D 1)
     (= C 1)
     (= B 1)
     (= A 0)
     (= N 1))
      )
      false
    )
  )
)

(check-sat)
(exit)
